(set-logic QF_S)
(declare-const x String)
(declare-const y String)
(assert (str.in.re x (re.* (re.union (re.* (str.to.re "f")) (str.to.re "d")))))
(assert (str.in.re y (re.+ (str.to.re "X"))))
(assert (= 1 (str.to.int y)))
(assert (not (= x y)))
(assert (= (str.to.int x) (str.to.int x)))
(check-sat)
